int: J = 3;
int: K = 3;
array[1..J] of float: Ej = [20.0, 18.0, 5.0];
array[1..J] of float: Aj = [0.5, 0.3, 1.0];
array[1..J] of int: Gj = [0, 0, 0];
array[1..J] of float: Fj = [5.0, 7.0, 6.0];
array[1..J] of float: Vj = [0.1, 0.125, 0.15];
array[1..J] of float: Pj_Inferior = [50.0, 80.0, 40.0];
array[1..J] of float: Pj_superior= [300.0, 200.0, 140.0];
array[1..J] of float: Supj = [180.0, 100.0, 100.0];
array[1..J] of float: Infj = [300.0, 150.0, 100.0];
array[1..J] of float: Pj_inicial = [0.0, 0.0, 0.0];
array[1..K] of float: Dk = [150.0, 500.0, 400.0];
array[1..K] of float: Rk = [15.0, 50.0, 40.0];
